
Value of objective function: 75.00000000

Actual values of the variables:
v1                              0
v2                              0
v3                              0
v4                              0
v5                              0
v7                              0
v8                              1
v9                              0
v10                             0
v11                             1
v12                             1
v13                             1
v14                             1
v15                             1
v17                             1
v19                             0
v20                             1
v21                             0
v22                             0
v23                             0
v27                             0
v28                             1
v29                             0
v31                             1
v32                             1
v33                             1
v34                             0
v35                             0
v36                             0
v37                             1
v38                             1
v39                             1
v40                             0
v41                             0
v42                             0
v43                             1
v44                             1
v45                             1
v46                             0
v47                             1
v48                             1
v49                             0
v50                             1
v6                              0
v18                             0
v16                             0
v24                             0
v30                             0
v26                             0
v25                             0
